1321192
23, 15, 80, 21, 13, 93, 96, 87, 62, 19, 73, 76, 18, 50, 99, 105, 71, 47, 7, 88, 65, 12, 42, 108, 78, 33, 106, 60, 55, 28, 8, 37, 77, 97, 104, 54, 48, 74, 68, 40, 36, 31, 70, 69, 75, 72, 58, 14, 39, 27, 86, 57, 38, 41, 26, 9, 66, 49, 11, 91, 89, 102, 100, 53, 17, 109, 10, 64, 22, 67, 79, 5, 44, 20, 63, 25, 29, 16, 107, 94, 46, 81, 2, 59, 84, 51, 32, 95, 43, 85, 61, 6, 30, 103, 56, 92, 3, 83, 52, 34, 45, 82, 101, 98, 35, 1, 90, 24, 4
